p tw 238 487
1 76
1 106
1 162
1 203
1 204
1 236
2 119
2 120
2 134
2 135
3 16
3 172
3 173
4 23
4 70
4 100
5 80
5 81
5 128
5 129
6 77
6 78
6 231
6 232
7 64
7 65
7 93
7 94
7 153
7 154
7 193
7 194
7 226
7 227
8 109
8 110
8 136
8 137
8 174
8 175
9 72
9 73
9 86
9 87
9 102
9 103
9 145
9 146
9 159
9 160
9 200
9 201
9 232
9 233
10 107
10 108
10 170
10 171
11 69
11 99
11 198
12 123
12 124
12 143
12 144
12 158
12 159
13 77
13 122
13 123
14 140
14 141
14 180
14 181
14 221
14 222
15 122
15 142
15 143
16 36
16 177
16 178
17 165
17 166
17 208
17 209
18 28
18 78
18 79
18 124
18 125
18 216
18 217
19 84
19 85
19 144
19 145
20 113
20 114
20 151
20 152
21 126
21 127
21 164
21 165
22 87
22 88
22 132
22 133
23 112
23 113
24 61
24 62
24 90
24 91
24 148
24 188
24 189
24 207
24 208
24 237
24 238
25 117
25 118
25 169
25 170
26 183
26 184
26 189
26 190
26 222
26 223
27 138
27 139
27 149
27 150
27 212
27 213
28 59
28 73
28 74
28 103
28 104
28 201
28 202
28 217
29 110
29 111
29 211
29 212
30 53
30 118
30 119
31 81
31 82
31 114
31 115
31 140
31 220
31 221
32 68
32 69
32 97
32 98
32 150
32 197
32 198
32 214
32 215
33 74
33 75
33 104
33 105
33 161
33 162
33 202
33 203
33 234
33 235
34 129
34 130
34 237
35 70
35 71
35 100
35 101
35 158
35 199
35 231
36 83
36 84
37 137
37 138
37 175
37 176
37 213
37 214
38 66
38 67
38 95
38 96
38 171
38 172
38 195
38 196
38 210
38 211
39 62
39 63
39 91
39 92
39 184
39 185
39 191
39 192
39 224
39 225
40 85
40 86
40 116
40 117
40 131
40 132
40 167
40 168
41 71
41 72
41 101
41 102
41 199
41 200
41 216
42 45
42 98
42 99
42 157
43 75
43 76
43 105
43 106
43 204
43 235
43 236
44 60
44 89
44 205
44 206
45 121
45 176
46 112
46 126
46 163
46 164
47 63
47 64
47 92
47 93
47 185
47 186
47 192
47 193
47 225
47 226
48 60
48 61
48 89
48 90
48 178
48 179
48 188
48 218
48 219
49 67
49 68
49 96
49 97
49 187
49 196
49 197
49 229
49 230
50 120
50 121
50 139
50 215
51 141
51 181
51 182
52 108
52 109
52 156
52 157
53 107
53 154
53 155
54 115
54 116
54 182
54 183
54 190
54 191
54 238
55 65
55 66
55 94
55 95
55 186
55 187
55 194
55 195
55 227
55 228
56 146
56 147
56 160
56 161
56 233
56 234
57 151
57 219
57 220
58 148
58 149
58 209
58 210
59 79
59 125
60 61
61 62
62 63
63 64
64 65
65 66
66 67
67 68
68 69
70 71
71 72
72 73
73 74
74 75
75 76
77 78
78 79
80 81
80 142
81 82
82 83
83 84
84 85
85 86
86 87
87 88
88 147
89 90
90 91
91 92
92 93
93 94
94 95
95 96
96 97
97 98
98 99
100 101
101 102
102 103
103 104
104 105
105 106
107 108
108 109
109 110
110 111
111 230
112 113
113 114
114 115
115 116
116 117
117 118
118 119
119 120
120 121
122 123
123 124
124 125
126 127
127 128
128 129
129 130
130 131
131 132
132 133
133 134
134 135
135 136
136 137
137 138
138 139
140 141
142 143
143 144
144 145
145 146
146 147
148 149
149 150
151 152
152 153
153 154
154 155
155 156
156 157
158 159
159 160
160 161
161 162
163 164
163 205
164 165
165 166
166 167
167 168
168 169
169 170
170 171
171 172
172 173
173 174
174 175
175 176
177 178
177 218
178 179
179 180
180 181
181 182
182 183
183 184
184 185
185 186
186 187
188 189
189 190
190 191
191 192
192 193
193 194
194 195
195 196
196 197
197 198
199 200
200 201
201 202
202 203
203 204
205 206
206 207
207 208
208 209
209 210
210 211
211 212
212 213
213 214
214 215
216 217
218 219
219 220
220 221
221 222
222 223
223 224
224 225
225 226
226 227
227 228
228 229
229 230
231 232
232 233
233 234
234 235
235 236
237 238
